c E(2,3) E(3,2) E(2,0) E(0,2) E(2,4) E(4,2) E(1,2) E(2,1) E(3,0) E(0,3) E(3,4) E(4,3) E(1,3) E(3,1) E(0,4) E(4,0) E(0,1) E(1,0) E(1,4) E(4,1)
c 1 2 3 4 5 6 7 8 9 10 11 12 13 14 15 16 17 18 19 20
p cnf 20 45
17 -17 0
17 -18 0
4 -4 0
4 -3 0
10 -10 0
10 -9 0
15 -15 0
15 -16 0
18 -17 0
18 -18 0
7 -7 0
7 -8 0
13 -13 0
13 -14 0
19 -19 0
19 -20 0
3 -4 0
3 -3 0
8 -7 0
8 -8 0
1 -1 0
1 -2 0
5 -5 0
5 -6 0
9 -10 0
9 -9 0
14 -13 0
14 -14 0
2 -1 0
2 -2 0
11 -11 0
11 -12 0
16 -15 0
16 -16 0
20 -19 0
20 -20 0
6 -5 0
6 -6 0
12 -11 0
12 -12 0
17 4 10 15 0
18 7 13 19 0
3 8 1 5 0
9 14 2 11 0
16 20 6 12 0
